networks/zoo_84_345/zoo_84_345-lower.txt
Number of groups: 36
Flow 1: {1 4 0} {4 46 0} 
Flow 2: {1 36 0} {36 35 0} {35 77 0} 
Flow 3: {2 4 0} Flow 4: {2 34 0} {34 32 0} {32 5 0} {5 47 0} 
Flow 5: {2 8 0} {8 42 0} {42 6 0} {6 48 0} 
Flow 6: {8 50 0} 
Flow 7: {6 9 0} {9 51 0} 
Flow 8: {8 24 0} {24 13 0} {13 55 0} 
Flow 9: {24 14 0} {14 56 0} 
Flow 10: {24 15 0} {15 57 0} 
Flow 11: {24 16 0} {16 58 0} 
Flow 12: {5 17 0} {17 59 0} 
Flow 13: {35 18 0} {18 60 0} 
Flow 13: {32 35 0} Flow 14: {35 22 0} {22 64 0} 
Flow 15: {4 31 0} {31 73 0} 
Flow 17: {4 36 0} {36 78 0} 
Flow 18: {32 38 0} {38 80 0} 
Flow 19: {3 2 0} Flow 20: {3 23 0} {23 32 0} Flow 21: {4 2 0} {2 44 0} 
Flow 25: {31 30 0} {30 10 0} {10 9 0} Flow 33: {24 66 0} 
Flow 34: {30 29 0} {29 71 0} 
Flow 38: {35 37 0} {37 79 0} 
Flow 39: {36 38 0} Flow 40: {8 40 0} {40 82 0} 
Flow 41: {40 41 0} {41 83 0} 
Flow 42: {5 32 0} {32 34 0} {34 2 0} Flow 44: {5 6 0} {6 42 0} {42 8 0} Flow 51: {38 31 0} Flow 54: {6 29 0} {29 30 0} {30 31 0} {31 4 0} Flow 55: {6 5 0} Flow 61: {7 8 0} {8 36 0} Flow 62: {36 1 0} {1 43 0} 
Flow 63: {8 2 0} Flow 67: {8 7 0} {7 49 0} 
Flow 75: {35 19 0} {19 61 0} 
Flow 78: {8 31 0} {31 25 0} {25 67 0} 
Flow 79: {32 27 0} {27 69 0} 
Flow 80: {8 30 0} Flow 82: {32 74 0} 
Flow 87: {38 39 0} {39 81 0} 
Flow 90: {42 84 0} 
Flow 91: {9 6 0} Flow 92: {10 30 0} Flow 93: {30 8 0} Flow 94: {11 35 0} Flow 95: {12 35 0} Flow 96: {13 24 0} {24 8 0} Flow 108: {14 24 0} Flow 110: {15 24 0} Flow 126: {16 24 0} Flow 134: {17 5 0} Flow 148: {18 35 0} {35 32 0} Flow 149: {35 36 0} {36 4 0} Flow 152: {36 8 0} Flow 162: {35 38 0} Flow 167: {22 35 0} Flow 188: {23 3 0} Flow 197: {23 38 0} Flow 220: {24 41 0} Flow 221: {25 31 0} Flow 222: {25 26 0} {26 38 0} {38 35 0} Flow 226: {29 6 0} Flow 236: {31 38 0} Flow 239: {38 32 0} Flow 240: {31 8 0} Flow 275: {3 45 0} 
Flow 275: {32 23 0} Flow 282: {35 11 0} {11 53 0} 
Flow 291: {23 65 0} 
Flow 293: {38 26 0} {26 25 0} Flow 294: {26 68 0} 
Flow 296: {9 28 0} {28 70 0} 
Flow 298: {30 72 0} 
Flow 314: {37 35 0} Flow 324: {37 38 0} Flow 327: {38 23 0} Flow 341: {39 38 0} Flow 343: {40 8 0} Flow 344: {41 24 0} Time taken running everything: 0 seconds
