networks/zoo_84_345/zoo_84_345-lower.sol
<?xml version = "1.0" encoding="UTF-8" standalone="yes"?>
<CPLEXSolution version="1.2">
 <header
   problemName="networks/zoo_84_345/zoo_84_345-lower.lp"
   solutionName="incumbent"
   solutionIndex="-1"
   objectiveValue="36"
   solutionTypeValue="3"
   solutionTypeString="primal"
   solutionStatusValue="101"
   solutionStatusString="integer optimal solution"
   solutionMethodString="mip"
   primalFeasible="1"
   dualFeasible="1"
   MIPNodes="0"
   MIPIterations="0"
   writeLevel="3"/>
 <quality
   epInt="1.0000000000000001e-05"
   epRHS="9.9999999999999995e-07"
   maxIntInfeas="0"
   maxPrimalInfeas="0"
   maxX="1"
   maxSlack="1"/>
 <variables>
  <variable name="Y(1,4)" index="3" value="1"/>
  <variable name="Y(2,35)" index="106" value="1"/>
  <variable name="Y(4,5)" index="229" value="1"/>
  <variable name="Y(5,6)" index="305" value="1"/>
  <variable name="Y(6,8)" index="382" value="1"/>
  <variable name="Y(7,9)" index="458" value="1"/>
  <variable name="Y(8,13)" index="537" value="1"/>
  <variable name="Y(9,14)" index="613" value="1"/>
  <variable name="Y(10,15)" index="689" value="1"/>
  <variable name="Y(11,16)" index="765" value="1"/>
  <variable name="Y(12,17)" index="841" value="1"/>
  <variable name="Y(13,18)" index="917" value="1"/>
  <variable name="Y(14,22)" index="994" value="1"/>
  <variable name="Y(15,31)" index="1078" value="1"/>
  <variable name="Y(17,36)" index="1232" value="1"/>
  <variable name="Y(18,38)" index="1309" value="1"/>
  <variable name="Y(21,2)" index="1501" value="1"/>
  <variable name="Y(33,24)" index="2421" value="1"/>
  <variable name="Y(34,29)" index="2501" value="1"/>
  <variable name="Y(38,37)" index="2808" value="1"/>
  <variable name="Y(40,40)" index="2961" value="1"/>
  <variable name="Y(41,41)" index="3037" value="1"/>
  <variable name="Y(62,1)" index="4575" value="1"/>
  <variable name="Y(67,7)" index="4956" value="1"/>
  <variable name="Y(75,19)" index="5568" value="1"/>
  <variable name="Y(78,25)" index="5797" value="1"/>
  <variable name="Y(79,27)" index="5874" value="1"/>
  <variable name="Y(82,32)" index="6104" value="1"/>
  <variable name="Y(87,39)" index="6485" value="1"/>
  <variable name="Y(90,42)" index="6713" value="1"/>
  <variable name="Y(275,3)" index="20552" value="1"/>
  <variable name="Y(282,11)" index="21085" value="1"/>
  <variable name="Y(291,23)" index="21770" value="1"/>
  <variable name="Y(294,26)" index="21998" value="1"/>
  <variable name="Y(296,28)" index="22150" value="1"/>
  <variable name="Y(298,30)" index="22302" value="1"/>
  <variable name="X(1,4,1)" index="25875" value="1"/>
  <variable name="X(1,36,2)" index="26221" value="1"/>
  <variable name="X(1,43,62)" index="26626" value="1"/>
  <variable name="X(2,4,3)" index="26912" value="1"/>
  <variable name="X(2,8,5)" index="27259" value="1"/>
  <variable name="X(2,34,4)" index="27603" value="1"/>
  <variable name="X(2,44,21)" index="27965" value="1"/>
  <variable name="X(3,2,19)" index="28308" value="1"/>
  <variable name="X(3,23,20)" index="28654" value="1"/>
  <variable name="X(3,45,275)" index="29254" value="1"/>
  <variable name="X(4,2,21)" index="29345" value="1"/>
  <variable name="X(4,31,15)" index="29684" value="1"/>
  <variable name="X(4,36,17)" index="30031" value="1"/>
  <variable name="X(4,46,1)" index="30360" value="1"/>
  <variable name="X(5,6,44)" index="30748" value="1"/>
  <variable name="X(5,17,12)" index="31061" value="1"/>
  <variable name="X(5,32,42)" index="31436" value="1"/>
  <variable name="X(5,47,4)" index="31743" value="1"/>
  <variable name="X(6,5,55)" index="32139" value="1"/>
  <variable name="X(6,9,7)" index="32436" value="1"/>
  <variable name="X(6,29,54)" index="32828" value="1"/>
  <variable name="X(6,42,44)" index="33163" value="1"/>
  <variable name="X(6,48,5)" index="33469" value="1"/>
  <variable name="X(7,8,61)" index="33870" value="1"/>
  <variable name="X(7,49,67)" index="34221" value="1"/>
  <variable name="X(8,2,63)" index="34562" value="1"/>
  <variable name="X(8,7,67)" index="34911" value="1"/>
  <variable name="X(8,24,8)" index="35197" value="1"/>
  <variable name="X(8,30,80)" index="35614" value="1"/>
  <variable name="X(8,31,78)" index="35957" value="1"/>
  <variable name="X(8,36,61)" index="36285" value="1"/>
  <variable name="X(8,40,40)" index="36609" value="1"/>
  <variable name="X(8,42,5)" index="36919" value="1"/>
  <variable name="X(8,50,6)" index="37265" value="1"/>
  <variable name="X(9,6,91)" index="37695" value="1"/>
  <variable name="X(9,28,296)" index="38245" value="1"/>
  <variable name="X(9,51,7)" index="38301" value="1"/>
  <variable name="X(10,9,25)" index="38664" value="1"/>
  <variable name="X(10,30,92)" index="39076" value="1"/>
  <variable name="X(11,35,94)" index="39423" value="1"/>
  <variable name="X(11,53,282)" index="39956" value="1"/>
  <variable name="X(12,35,95)" index="40114" value="1"/>
  <variable name="X(13,24,96)" index="40460" value="1"/>
  <variable name="X(13,55,8)" index="40717" value="1"/>
  <variable name="X(14,24,108)" index="41162" value="1"/>
  <variable name="X(14,56,9)" index="41408" value="1"/>
  <variable name="X(15,24,110)" index="41854" value="1"/>
  <variable name="X(15,57,10)" index="42099" value="1"/>
  <variable name="X(16,24,126)" index="42560" value="1"/>
  <variable name="X(16,58,11)" index="42790" value="1"/>
  <variable name="X(17,5,134)" index="43258" value="1"/>
  <variable name="X(17,59,12)" index="43481" value="1"/>
  <variable name="X(18,35,148)" index="43962" value="1"/>
  <variable name="X(18,60,13)" index="44172" value="1"/>
  <variable name="X(19,61,75)" index="44579" value="1"/>
  <variable name="X(22,35,167)" index="45016" value="1"/>
  <variable name="X(22,64,14)" index="45208" value="1"/>
  <variable name="X(23,3,188)" index="45727" value="1"/>
  <variable name="X(23,32,20)" index="45904" value="1"/>
  <variable name="X(23,38,197)" index="46426" value="1"/>
  <variable name="X(23,65,291)" index="46865" value="1"/>
  <variable name="X(24,8,96)" index="47015" value="1"/>
  <variable name="X(24,13,8)" index="47272" value="1"/>
  <variable name="X(24,14,9)" index="47618" value="1"/>
  <variable name="X(24,15,10)" index="47964" value="1"/>
  <variable name="X(24,16,11)" index="48310" value="1"/>
  <variable name="X(24,41,220)" index="48864" value="1"/>
  <variable name="X(24,66,33)" index="49022" value="1"/>
  <variable name="X(25,26,222)" index="49556" value="1"/>
  <variable name="X(25,31,221)" index="49900" value="1"/>
  <variable name="X(25,67,78)" index="50102" value="1"/>
  <variable name="X(26,25,293)" index="50662" value="1"/>
  <variable name="X(26,38,222)" index="50936" value="1"/>
  <variable name="X(26,68,294)" index="51353" value="1"/>
  <variable name="X(27,69,79)" index="51483" value="1"/>
  <variable name="X(28,70,296)" index="52045" value="1"/>
  <variable name="X(29,6,226)" index="52320" value="1"/>
  <variable name="X(29,30,54)" index="52493" value="1"/>
  <variable name="X(29,71,34)" index="52818" value="1"/>
  <variable name="X(30,8,93)" index="53222" value="1"/>
  <variable name="X(30,10,25)" index="53499" value="1"/>
  <variable name="X(30,29,34)" index="53853" value="1"/>
  <variable name="X(30,31,54)" index="54218" value="1"/>
  <variable name="X(30,72,298)" index="54807" value="1"/>
  <variable name="X(31,4,54)" index="54908" value="1"/>
  <variable name="X(31,8,240)" index="55439" value="1"/>
  <variable name="X(31,25,78)" index="55622" value="1"/>
  <variable name="X(31,30,25)" index="55914" value="1"/>
  <variable name="X(31,38,236)" index="56470" value="1"/>
  <variable name="X(31,73,15)" index="56594" value="1"/>
  <variable name="X(32,5,4)" index="56928" value="1"/>
  <variable name="X(32,23,275)" index="57544" value="1"/>
  <variable name="X(32,27,79)" index="57693" value="1"/>
  <variable name="X(32,34,42)" index="58001" value="1"/>
  <variable name="X(32,35,13)" index="58317" value="1"/>
  <variable name="X(32,38,18)" index="58667" value="1"/>
  <variable name="X(32,74,82)" index="59076" value="1"/>
  <variable name="X(34,2,42)" index="59381" value="1"/>
  <variable name="X(34,32,4)" index="59688" value="1"/>
  <variable name="X(35,11,282)" index="60311" value="1"/>
  <variable name="X(35,18,13)" index="60387" value="1"/>
  <variable name="X(35,19,75)" index="60794" value="1"/>
  <variable name="X(35,22,14)" index="61078" value="1"/>
  <variable name="X(35,32,148)" index="61557" value="1"/>
  <variable name="X(35,36,149)" index="61903" value="1"/>
  <variable name="X(35,37,38)" index="62137" value="1"/>
  <variable name="X(35,38,162)" index="62606" value="1"/>
  <variable name="X(35,77,2)" index="62791" value="1"/>
  <variable name="X(36,1,62)" index="63196" value="1"/>
  <variable name="X(36,4,149)" index="63628" value="1"/>
  <variable name="X(36,8,152)" index="63976" value="1"/>
  <variable name="X(36,35,2)" index="64171" value="1"/>
  <variable name="X(36,38,39)" index="64553" value="1"/>
  <variable name="X(36,78,17)" index="64876" value="1"/>
  <variable name="X(37,35,314)" index="65518" value="1"/>
  <variable name="X(37,38,324)" index="65873" value="1"/>
  <variable name="X(37,79,38)" index="65932" value="1"/>
  <variable name="X(38,23,327)" index="66566" value="1"/>
  <variable name="X(38,26,293)" index="66877" value="1"/>
  <variable name="X(38,31,51)" index="66980" value="1"/>
  <variable name="X(38,32,239)" index="67513" value="1"/>
  <variable name="X(38,35,222)" index="67841" value="1"/>
  <variable name="X(38,39,87)" index="68051" value="1"/>
  <variable name="X(38,80,18)" index="68327" value="1"/>
  <variable name="X(39,38,341)" index="68995" value="1"/>
  <variable name="X(39,81,87)" index="69086" value="1"/>
  <variable name="X(40,8,343)" index="69687" value="1"/>
  <variable name="X(40,41,41)" index="69730" value="1"/>
  <variable name="X(40,82,40)" index="70074" value="1"/>
  <variable name="X(41,24,344)" index="70723" value="1"/>
  <variable name="X(41,83,41)" index="70765" value="1"/>
  <variable name="X(42,6,5)" index="71074" value="1"/>
  <variable name="X(42,8,44)" index="71458" value="1"/>
  <variable name="X(42,84,90)" index="71849" value="1"/>
 </variables>
</CPLEXSolution>
